c NaPS 1.02b.
o 4
o 2
s OPTIMUM FOUND
c _____________________________________________________________________________
c 
c std/band forms        : 8,0
c 2cl/3cl ITE-codings   : 15,0
c BDD/srt/adr Max costs : 7,18,0
c BDDraw/bin/mul/srt/adr: 5,0,0,3,0
c BDD nodes             : 40
c Es1/CC detections     : 0,0
c SAT/UNSAT calls       : 2,2
c restarts              : 52
c conflicts             : 8606           (609706 /sec)
c decisions             : 11230          (795608 /sec)
c propagations          : 106759         (7563514 /sec)
c inspects              : 0              (0 /sec)
c CPU time (solving tm) : 0.01412 s        (0.01404 s)
c Time for Opt-base     : 7e-06 s
c _____________________________________________________________________________
v x11 -x12 -x13 -x14 x15 -x16 -x21 -x26 -x31 -x36 -x17 -x22 -x27 x32 -x37 x18 -x23 -x28 -x33 -x38 -x19 x24 -x29 -x34 -x39 -x20 -x25 -x30 -x35 -x40 x1 -x2 x3 x4 x5 x6 x7 x8 x9 -x10 -x41 x42 -x43 -x44 -x45 x46 -x47 x48 -x49 x50 -x51 -x52 x53 -x54 -x55
